15024
1 0 0 0 0 1 0 0 0 0 0 1 0 0 1 0 1 1 0 0 1 0 0 0 1 1 0 0 0 0 
20 11 16 17 20 5 0 24 17 17 5 16 20 20 0 14 17 17 5 11 14 0 5 0 5 20 17 24 5 24 5 25 16 25 20 20 24 24 0 14 0 14 24 16 24 14 0 20 11 14 5 14 14 5 20 20 17 11 11 14 0 5 20 11 11 11 24 0 5 5 16 20 11 17 24 14 24 20 14 24 20 0 14 17 0 17 17 0 20 5 17 24 17 11 0 24 17 11 25 16 16 0 17 25 17 25 0 11 14 14 14 14 17 11 11 25 24 24 24 24 5 16 25 20 16 0 5 24 0 25 0 11 24 5 20 14 0 5 20 17 0 20 20 14 14 25 25 5 17 5 
